1 74529.2
2 74400.1
3 71586.8
4 71527.4
5 69064.9
6 71954.3
7 72118.8
8 69659.3
9 67857.8
10 68601
11 73855.8
12 74567.3
13 75608
14 69949.8
15 70073
16 75068.2
17 74478.1
18 75632.5
19 71402.4
20 73260.2
21 77172.5
22 72797.7
23 71155.2
24 74621.6
25 73240.3
26 73934.2
27 75542.8
28 75696.4
29 74013.1
30 71889.3
31 70977
32 73273.3
33 78283.5
34 73741.5
35 72513.4
36 71314.2
37 75892
38 73527.8
39 75736.2
40 74063.7
41 69762
42 70184
43 70795.8
44 75368.3
45 77375.6
46 73424.6
47 70510.4
48 71173.4
49 74427.8
50 71539.9
51 70686.2
52 75949.2
